Geographic Exponential Decay
20 231 16 203 196 229 314 105 256 46 183 230 262 126 139 40 68 116 85 86 162
p edge 320 320
e 0 40 35.0
e 1 129 4.0
e 1 0 7.0
e 2 94 5.0
e 2 1 2.0
e 3 64 2.0
e 3 2 1.0
e 4 203 65.0
e 4 3 6.0
e 5 290 11.0
e 5 4 3.0
e 6 181 16.0
e 6 220 17.0
e 6 5 20.0
e 7 254 1.0
e 7 6 9.0
e 8 196 41.0
e 8 7 1.0
e 9 215 1.0
e 9 8 3.0
e 10 240 4.0
e 10 9 2.0
e 11 43 2.0
e 11 10 1.0
e 12 65 2.0
e 12 11 2.0
e 13 119 2.0
e 13 12 2.0
e 14 95 5.0
e 14 13 3.0
e 15 247 1.0
e 15 14 5.0
e 16 304 76.0
e 16 233 100.0
e 16 269 55.0
e 16 164 15.0
e 16 248 25.0
e 16 15 54.0
e 17 151 8.0
e 17 16 100.0
e 18 257 8.0
e 18 17 8.0
e 19 140 1.0
e 19 18 3.0
e 20 132 4.0
e 20 19 1.0
e 21 253 2.0
e 21 20 1.0
e 22 150 2.0
e 22 21 2.0
e 23 155 17.0
e 23 22 2.0
e 24 138 1.0
e 24 23 1.0
e 25 239 12.0
e 25 24 12.0
e 26 263 2.0
e 26 25 2.0
e 27 31 10.0
e 27 26 1.0
e 28 88 3.0
e 28 27 8.0
e 29 270 4.0
e 29 28 8.0
e 30 101 5.0
e 30 29 4.0
e 32 228 2.0
e 32 30 3.0
e 33 112 3.0
e 33 32 1.0
e 34 35 10.0
e 34 33 3.0
e 36 241 3.0
e 36 34 2.0
e 37 49 5.0
e 37 36 4.0
e 38 174 3.0
e 38 37 1.0
e 39 271 2.0
e 39 38 1.0
e 40 184 88.0
e 40 218 3.0
e 40 41 21.0
e 40 42 9.0
e 44 115 11.0
e 44 39 1.0
e 45 264 4.0
e 45 44 1.0
e 46 50 29.0
e 46 265 87.0
e 46 146 3.0
e 46 183 33.0
e 46 212 98.0
e 46 45 8.0
e 47 285 10.0
e 47 46 8.0
e 48 123 4.0
e 48 47 1.0
e 51 201 1.0
e 51 48 1.0
e 52 86 90.0
e 52 51 10.0
e 53 67 1.0
e 53 52 7.0
e 54 55 2.0
e 54 53 1.0
e 56 234 3.0
e 56 54 1.0
e 57 161 2.0
e 57 56 2.0
e 58 59 2.0
e 58 57 1.0
e 60 221 10.0
e 60 58 7.0
e 61 96 1.0
e 61 60 6.0
e 62 229 69.0
e 62 61 9.0
e 63 141 1.0
e 63 62 6.0
e 66 182 1.0
e 66 63 1.0
e 68 219 32.0
e 68 222 78.0
e 68 318 70.0
e 68 69 82.0
e 68 70 52.0
e 68 66 88.0
e 71 120 1.0
e 71 68 46.0
e 72 289 3.0
e 72 71 1.0
e 73 74 1.0
e 73 72 1.0
e 75 76 1.0
e 75 73 1.0
e 77 236 3.0
e 77 75 1.0
e 78 79 2.0
e 78 77 1.0
e 80 152 1.0
e 80 78 1.0
e 81 82 3.0
e 81 80 2.0
e 83 282 19.0
e 83 81 2.0
e 84 111 12.0
e 85 86 84.0
e 85 235 49.0
e 85 87 12.0
e 85 266 61.0
e 85 237 13.0
e 86 273 94.0
e 86 89 25.0
e 86 153 11.0
e 90 92 8.0
e 90 83 4.0
e 91 93 2.0
e 91 90 3.0
e 97 147 11.0
e 97 91 1.0
e 98 286 6.0
e 98 97 1.0
e 99 212 17.0
e 100 278 1.0
e 100 98 2.0
e 102 133 1.0
e 102 100 2.0
e 103 277 1.0
e 103 102 2.0
e 104 105 84.0
e 105 106 6.0
e 105 249 24.0
e 105 231 94.0
e 105 111 60.0
e 107 310 8.0
e 107 103 3.0
e 108 268 1.0
e 108 107 1.0
e 109 110 2.0
e 109 108 2.0
e 113 114 2.0
e 113 109 1.0
e 116 291 77.0
e 116 117 66.0
e 116 142 81.0
e 116 295 100.0
e 116 171 47.0
e 116 113 55.0
e 118 238 1.0
e 118 116 68.0
e 121 122 4.0
e 121 118 1.0
e 124 125 5.0
e 124 121 5.0
e 126 130 57.0
e 126 143 16.0
e 126 207 58.0
e 126 127 33.0
e 126 192 37.0
e 126 124 8.0
e 128 131 1.0
e 128 126 33.0
e 134 156 12.0
e 134 128 1.0
e 135 136 1.0
e 135 134 2.0
e 137 139 29.0
e 137 135 4.0
e 139 302 57.0
e 139 144 6.0
e 139 145 100.0
e 139 213 56.0
e 148 223 1.0
e 148 137 4.0
e 149 298 1.0
e 149 148 5.0
e 154 292 13.0
e 154 149 3.0
e 155 157 2.0
e 158 159 8.0
e 158 154 1.0
e 160 162 33.0
e 162 163 94.0
e 162 231 17.0
e 162 296 12.0
e 162 193 53.0
e 165 224 2.0
e 165 158 1.0
e 166 185 21.0
e 167 292 24.0
e 168 274 2.0
e 168 165 2.0
e 169 170 2.0
e 169 168 1.0
e 172 173 3.0
e 172 169 8.0
e 175 176 1.0
e 175 172 6.0
e 177 297 3.0
e 177 175 2.0
e 178 179 3.0
e 178 177 8.0
e 180 242 1.0
e 180 178 7.0
e 183 279 30.0
e 183 185 83.0
e 183 186 11.0
e 183 187 69.0
e 188 189 3.0
e 188 180 6.0
e 190 243 16.0
e 190 188 1.0
e 191 194 10.0
e 191 190 7.0
e 195 203 77.0
e 196 197 25.0
e 196 198 34.0
e 196 199 92.0
e 196 200 80.0
e 202 203 69.0
e 203 299 17.0
e 203 204 8.0
e 204 225 14.0
e 205 206 1.0
e 205 191 3.0
e 208 209 1.0
e 208 205 1.0
e 210 305 4.0
e 210 208 8.0
e 211 214 2.0
e 211 210 2.0
e 216 243 9.0
e 217 282 24.0
e 226 306 4.0
e 226 211 2.0
e 227 244 1.0
e 227 226 1.0
e 229 230 76.0
e 229 231 81.0
e 229 267 31.0
e 229 315 74.0
e 230 231 91.0
e 230 232 32.0
e 230 245 69.0
e 230 246 68.0
e 231 250 81.0
e 251 252 6.0
e 251 227 1.0
e 255 256 29.0
e 255 251 1.0
e 256 258 69.0
e 256 259 1.0
e 256 260 52.0
e 256 261 11.0
e 262 272 84.0
e 262 275 55.0
e 262 276 85.0
e 262 280 8.0
e 262 281 30.0
e 262 255 65.0
e 283 284 7.0
e 283 262 55.0
e 287 288 1.0
e 287 283 7.0
e 293 294 6.0
e 293 287 1.0
e 300 301 5.0
e 300 293 2.0
e 303 307 3.0
e 303 300 1.0
e 308 309 6.0
e 308 303 5.0
e 311 312 2.0
e 311 308 2.0
e 313 314 53.0
e 313 311 1.0
e 314 316 34.0
e 314 317 72.0
e 314 319 18.0
